NAME: ftv33 
TYPE: TSP
COMMENT: NO_COMMENT
DIMENSION:  68
EDGE_WEIGHT_TYPE: EXPLICIT
EDGE_WEIGHT_FORMAT: FULL_MATRIX
DISPLAY_DATA_TYPE: NO_DISPLAY
EDGE_WEIGHT_SECTION
  9999  9999  9999  9999  9999  9999  9999  9999  9999  9999  9999  9999  9999  9999  9999  9999  9999  9999  9999  9999  9999  9999  9999  9999  9999  9999  9999  9999  9999  9999  9999  9999  9999  9999    -1    66    43    27   109   157   143    95    79    42    83   204    38    13    38    31    22   108   127   153   179   212   148   153   173    30   112   144    94    66   113   146   102    81
  9999  9999  9999  9999  9999  9999  9999  9999  9999  9999  9999  9999  9999  9999  9999  9999  9999  9999  9999  9999  9999  9999  9999  9999  9999  9999  9999  9999  9999  9999  9999  9999  9999  9999    26    -1    57    41   135   171   169   121   105    68   109   230    64    39    48    41    32   134   153   179   165   205   134   146   166    16    98   130    80    52   108   172   128    95
  9999  9999  9999  9999  9999  9999  9999  9999  9999  9999  9999  9999  9999  9999  9999  9999  9999  9999  9999  9999  9999  9999  9999  9999  9999  9999  9999  9999  9999  9999  9999  9999  9999  9999    82    56    -1    62   161   114   132   177   161   124   165   286   120    95   104    97    88   190   209   235   199   239   168   180   200    72   132   164   114   101    70   228   184    38
  9999  9999  9999  9999  9999  9999  9999  9999  9999  9999  9999  9999  9999  9999  9999  9999  9999  9999  9999  9999  9999  9999  9999  9999  9999  9999  9999  9999  9999  9999  9999  9999  9999  9999    65    39    16    -1   174   130   148   160   144   107   148   269   103    78    87    80    71   173   192   218   204   244   173   185   205    55   137   169   119    91    86   211   167    54
  9999  9999  9999  9999  9999  9999  9999  9999  9999  9999  9999  9999  9999  9999  9999  9999  9999  9999  9999  9999  9999  9999  9999  9999  9999  9999  9999  9999  9999  9999  9999  9999  9999  9999   100   109    53    97    -1    60    34    54    91    67   108   216    88    87   119   115   122   133   152   178   243   237   212   178   198   125   185   217   167   154    84   171    61    91
  9999  9999  9999  9999  9999  9999  9999  9999  9999  9999  9999  9999  9999  9999  9999  9999  9999  9999  9999  9999  9999  9999  9999  9999  9999  9999  9999  9999  9999  9999  9999  9999  9999  9999   147   156   100   144    47    -1    31   101   138   114   155   255   135   134   166   162   169   180   199   225   290   284   259   225   245   172   232   256   214   201   131   218   108   138
  9999  9999  9999  9999  9999  9999  9999  9999  9999  9999  9999  9999  9999  9999  9999  9999  9999  9999  9999  9999  9999  9999  9999  9999  9999  9999  9999  9999  9999  9999  9999  9999  9999  9999   134   140    84   131    34    40    -1    88   125   101   142   237   122   121   153   149   156   167   186   212   277   271   246   212   232   156   216   225   198   185   115   205    95   122
  9999  9999  9999  9999  9999  9999  9999  9999  9999  9999  9999  9999  9999  9999  9999  9999  9999  9999  9999  9999  9999  9999  9999  9999  9999  9999  9999  9999  9999  9999  9999  9999  9999  9999    69   135   107    96    54   114    88    -1    37    27    68   162    57    56    88    84    91    93   112   138   203   197   172   138   158    99   181   213   163   135   138   131     7   145
  9999  9999  9999  9999  9999  9999  9999  9999  9999  9999  9999  9999  9999  9999  9999  9999  9999  9999  9999  9999  9999  9999  9999  9999  9999  9999  9999  9999  9999  9999  9999  9999  9999  9999   117   183   155   144   102   162   133    48    -1    75    88   125   105   104   136   132   139   113   132   158   223   217   192   158   178   147   223   261   211   183   186   151    55   193
  9999  9999  9999  9999  9999  9999  9999  9999  9999  9999  9999  9999  9999  9999  9999  9999  9999  9999  9999  9999  9999  9999  9999  9999  9999  9999  9999  9999  9999  9999  9999  9999  9999  9999    42   108    85    69    67   127   101    53    37    -1    41   162    30    29    61    57    64    66    85   111   176   170   145   111   131    72   154   186   136   108   151   104    60   123
  9999  9999  9999  9999  9999  9999  9999  9999  9999  9999  9999  9999  9999  9999  9999  9999  9999  9999  9999  9999  9999  9999  9999  9999  9999  9999  9999  9999  9999  9999  9999  9999  9999  9999    89   155   132   116   114   174   148   100    53    47    -1   123    77    76   108   104   111    85   104   130   195   189   164   130   150   119   195   233   183   155   198   123   107   170
  9999  9999  9999  9999  9999  9999  9999  9999  9999  9999  9999  9999  9999  9999  9999  9999  9999  9999  9999  9999  9999  9999  9999  9999  9999  9999  9999  9999  9999  9999  9999  9999  9999  9999   125   190   168   152   175   235   209   158   114   108    61    -1    87   112   118   114   123    60    79   105   165   146   139   105   125   133   170   234   197   169   225    80   165   206
  9999  9999  9999  9999  9999  9999  9999  9999  9999  9999  9999  9999  9999  9999  9999  9999  9999  9999  9999  9999  9999  9999  9999  9999  9999  9999  9999  9999  9999  9999  9999  9999  9999  9999    38   104    81    65    97   157   131    83    67    30    71   192    -1    25    31    27    36    96   115   141   206   200   175   141   161    68   150   182   132   104   151   134    90   119
  9999  9999  9999  9999  9999  9999  9999  9999  9999  9999  9999  9999  9999  9999  9999  9999  9999  9999  9999  9999  9999  9999  9999  9999  9999  9999  9999  9999  9999  9999  9999  9999  9999  9999    13    79    56    40    96   156   130    82    66    29    70   191    25    -1    32    28    35    95   114   140   192   199   161   140   160    43   125   157   107    79   126   133    89    94
  9999  9999  9999  9999  9999  9999  9999  9999  9999  9999  9999  9999  9999  9999  9999  9999  9999  9999  9999  9999  9999  9999  9999  9999  9999  9999  9999  9999  9999  9999  9999  9999  9999  9999    38   104    81    65   128   188   162   114    98    61   102   223    31    32    -1     7    16   127   146   172   199   231   168   172   192    50   132   164   114    86   142   165   121   119
  9999  9999  9999  9999  9999  9999  9999  9999  9999  9999  9999  9999  9999  9999  9999  9999  9999  9999  9999  9999  9999  9999  9999  9999  9999  9999  9999  9999  9999  9999  9999  9999  9999  9999    31    97    74    58   135   188   169   121   105    68   109   230    38    39     7    -1     9   134   153   179   192   232   161   173   193    43   125   157   107    79   135   172   128   112
  9999  9999  9999  9999  9999  9999  9999  9999  9999  9999  9999  9999  9999  9999  9999  9999  9999  9999  9999  9999  9999  9999  9999  9999  9999  9999  9999  9999  9999  9999  9999  9999  9999  9999    22    88    65    49   131   179   165   117   101    64   105   226    47    35    16     9    -1   130   149   175   183   223   152   164   184    34   116   148    98    70   126   168   124   103
  9999  9999  9999  9999  9999  9999  9999  9999  9999  9999  9999  9999  9999  9999  9999  9999  9999  9999  9999  9999  9999  9999  9999  9999  9999  9999  9999  9999  9999  9999  9999  9999  9999  9999   103   130   146   130   198   258   232   184   137   131    84   144   110   116   123   116   107    -1    19    45   110   104    79    45    65    73   110   174   137   109   165    38   191   184
  9999  9999  9999  9999  9999  9999  9999  9999  9999  9999  9999  9999  9999  9999  9999  9999  9999  9999  9999  9999  9999  9999  9999  9999  9999  9999  9999  9999  9999  9999  9999  9999  9999  9999   143   176   186   170   193   253   227   179   132   126    79   139   105   130   136   132   141    46    -1    57   112    93   125    91   111   119   156   209   183   155   211    27   186   224
  9999  9999  9999  9999  9999  9999  9999  9999  9999  9999  9999  9999  9999  9999  9999  9999  9999  9999  9999  9999  9999  9999  9999  9999  9999  9999  9999  9999  9999  9999  9999  9999  9999  9999    94   121   137   121   203   251   237   189   149   136    96   156   122   107   114   107    98    63    17    -1    82    63    70    36    56    64   101   165   128   100   156    44   196   175
  9999  9999  9999  9999  9999  9999  9999  9999  9999  9999  9999  9999  9999  9999  9999  9999  9999  9999  9999  9999  9999  9999  9999  9999  9999  9999  9999  9999  9999  9999  9999  9999  9999  9999   104   131   147   131   213   239   247   199   183   146   144   184   142   117   124   117   108   116    70    53    -1    40    36    46    66    74    67   131   110    82   138    75   206   165
  9999  9999  9999  9999  9999  9999  9999  9999  9999  9999  9999  9999  9999  9999  9999  9999  9999  9999  9999  9999  9999  9999  9999  9999  9999  9999  9999  9999  9999  9999  9999  9999  9999  9999   123   150   166   150   232   258   266   218   202   165   163   165   161   136   143   136   127   135    89    72    19    -1    55    65    85    93    86   116   129   101   157    76   225   184
  9999  9999  9999  9999  9999  9999  9999  9999  9999  9999  9999  9999  9999  9999  9999  9999  9999  9999  9999  9999  9999  9999  9999  9999  9999  9999  9999  9999  9999  9999  9999  9999  9999  9999    98   125   141   125   207   203   221   193   177   140   175   215   136   111   118   111   102   147   101    84    31    71    -1    77    97    68    31    95    74    46   102   106   200   129
  9999  9999  9999  9999  9999  9999  9999  9999  9999  9999  9999  9999  9999  9999  9999  9999  9999  9999  9999  9999  9999  9999  9999  9999  9999  9999  9999  9999  9999  9999  9999  9999  9999  9999    58    85   101    85   167   215   201   153   137   100   141   249    96    71    78    71    62   166   135   118    65   105    34    -1    20    28    65   129    92    64   120   140   160   139
  9999  9999  9999  9999  9999  9999  9999  9999  9999  9999  9999  9999  9999  9999  9999  9999  9999  9999  9999  9999  9999  9999  9999  9999  9999  9999  9999  9999  9999  9999  9999  9999  9999  9999    38    65    81    65   147   195   181   133   117    80   121   242    76    51    58    51    42   146   148   131    78   118    47    59    -1     8    78   122    72    44   100   153   140   119
  9999  9999  9999  9999  9999  9999  9999  9999  9999  9999  9999  9999  9999  9999  9999  9999  9999  9999  9999  9999  9999  9999  9999  9999  9999  9999  9999  9999  9999  9999  9999  9999  9999  9999    30    57    73    57   139   187   173   125   109    72   113   234    68    43    50    43    34   138   157   183   149   189   118   130   150    -1    82   114    64    36    92   176   132   111
  9999  9999  9999  9999  9999  9999  9999  9999  9999  9999  9999  9999  9999  9999  9999  9999  9999  9999  9999  9999  9999  9999  9999  9999  9999  9999  9999  9999  9999  9999  9999  9999  9999  9999    67    94   110    94   176   172   190   162   146   109   150   251   105    80    87    80    71   175   137   120    67   107    36    48    68    37    -1    93    43    15    71   142   169    98
  9999  9999  9999  9999  9999  9999  9999  9999  9999  9999  9999  9999  9999  9999  9999  9999  9999  9999  9999  9999  9999  9999  9999  9999  9999  9999  9999  9999  9999  9999  9999  9999  9999  9999   120   147   163   147   229   207   225   215   199   162   203   282   158   133   140   133   124   221   175   158   105   117    89   101   121    90    53    -1    57    68   124   180   222   151
  9999  9999  9999  9999  9999  9999  9999  9999  9999  9999  9999  9999  9999  9999  9999  9999  9999  9999  9999  9999  9999  9999  9999  9999  9999  9999  9999  9999  9999  9999  9999  9999  9999  9999   149   160   164   166   222   175   193   244   228   191   232   332   187   162   169   162   153   257   219   202   149   167   118   130   150   119    82    50    -1    97    93   224   251   120
  9999  9999  9999  9999  9999  9999  9999  9999  9999  9999  9999  9999  9999  9999  9999  9999  9999  9999  9999  9999  9999  9999  9999  9999  9999  9999  9999  9999  9999  9999  9999  9999  9999  9999   100    80   102    86   204   157   175   195   179   142   183   297   138   113   120   113   104   208   183   166   113   153    82    94   114    70    46    78    28    -1    56   188   202    83
  9999  9999  9999  9999  9999  9999  9999  9999  9999  9999  9999  9999  9999  9999  9999  9999  9999  9999  9999  9999  9999  9999  9999  9999  9999  9999  9999  9999  9999  9999  9999  9999  9999  9999    93    67    71    73   148   101   119   188   172   135   176   297   131   106   115   108    99   201   220   241   188   228   157   169   189    83   121   147   103    90    -1   239   195    27
  9999  9999  9999  9999  9999  9999  9999  9999  9999  9999  9999  9999  9999  9999  9999  9999  9999  9999  9999  9999  9999  9999  9999  9999  9999  9999  9999  9999  9999  9999  9999  9999  9999  9999   162   189   205   189   235   295   269   221   174   168   121   113   147   172   178   174   166   120    85    68    95    76   131   104   124   132   162   192   196   168   224    -1   228   243
  9999  9999  9999  9999  9999  9999  9999  9999  9999  9999  9999  9999  9999  9999  9999  9999  9999  9999  9999  9999  9999  9999  9999  9999  9999  9999  9999  9999  9999  9999  9999  9999  9999  9999    62   128   105    89    60   120    94    46    57    20    61   182    50    49    81    77    84    86   105   131   196   190   165   131   151    92   174   206   156   128   144   124    -1   143
  9999  9999  9999  9999  9999  9999  9999  9999  9999  9999  9999  9999  9999  9999  9999  9999  9999  9999  9999  9999  9999  9999  9999  9999  9999  9999  9999  9999  9999  9999  9999  9999  9999  9999    66    40    62    46   175   133   151   161   145   108   149   270   104    79    88    81    72   174   193   214   161   201   130   142   162    56    94   126    76    63    32   212   168    -1
    -1    26    82    65   100   147   134    69   117    42    89   125    38    13    38    31    22   103   143    94   104   123    98    58    38    30    67   120   149   100    93   162    62    66  9999  9999  9999  9999  9999  9999  9999  9999  9999  9999  9999  9999  9999  9999  9999  9999  9999  9999  9999  9999  9999  9999  9999  9999  9999  9999  9999  9999  9999  9999  9999  9999  9999  9999
    66    -1    56    39   109   156   140   135   183   108   155   190   104    79   104    97    88   130   176   121   131   150   125    85    65    57    94   147   160    80    67   189   128    40  9999  9999  9999  9999  9999  9999  9999  9999  9999  9999  9999  9999  9999  9999  9999  9999  9999  9999  9999  9999  9999  9999  9999  9999  9999  9999  9999  9999  9999  9999  9999  9999  9999  9999
    43    57    -1    16    53   100    84   107   155    85   132   168    81    56    81    74    65   146   186   137   147   166   141   101    81    73   110   163   164   102    71   205   105    62  9999  9999  9999  9999  9999  9999  9999  9999  9999  9999  9999  9999  9999  9999  9999  9999  9999  9999  9999  9999  9999  9999  9999  9999  9999  9999  9999  9999  9999  9999  9999  9999  9999  9999
    27    41    62    -1    97   144   131    96   144    69   116   152    65    40    65    58    49   130   170   121   131   150   125    85    65    57    94   147   166    86    73   189    89    46  9999  9999  9999  9999  9999  9999  9999  9999  9999  9999  9999  9999  9999  9999  9999  9999  9999  9999  9999  9999  9999  9999  9999  9999  9999  9999  9999  9999  9999  9999  9999  9999  9999  9999
   109   135   161   174    -1    47    34    54   102    67   114   175    97    96   128   135   131   198   193   203   213   232   207   167   147   139   176   229   222   204   148   235    60   175  9999  9999  9999  9999  9999  9999  9999  9999  9999  9999  9999  9999  9999  9999  9999  9999  9999  9999  9999  9999  9999  9999  9999  9999  9999  9999  9999  9999  9999  9999  9999  9999  9999  9999
   157   171   114   130    60    -1    40   114   162   127   174   235   157   156   188   188   179   258   253   251   239   258   203   215   195   187   172   207   175   157   101   295   120   133  9999  9999  9999  9999  9999  9999  9999  9999  9999  9999  9999  9999  9999  9999  9999  9999  9999  9999  9999  9999  9999  9999  9999  9999  9999  9999  9999  9999  9999  9999  9999  9999  9999  9999
   143   169   132   148    34    31    -1    88   133   101   148   209   131   130   162   169   165   232   227   237   247   266   221   201   181   173   190   225   193   175   119   269    94   151  9999  9999  9999  9999  9999  9999  9999  9999  9999  9999  9999  9999  9999  9999  9999  9999  9999  9999  9999  9999  9999  9999  9999  9999  9999  9999  9999  9999  9999  9999  9999  9999  9999  9999
    95   121   177   160    54   101    88    -1    48    53   100   158    83    82   114   121   117   184   179   189   199   218   193   153   133   125   162   215   244   195   188   221    46   161  9999  9999  9999  9999  9999  9999  9999  9999  9999  9999  9999  9999  9999  9999  9999  9999  9999  9999  9999  9999  9999  9999  9999  9999  9999  9999  9999  9999  9999  9999  9999  9999  9999  9999
    79   105   161   144    91   138   125    37    -1    37    53   114    67    66    98   105   101   137   132   149   183   202   177   137   117   109   146   199   228   179   172   174    57   145  9999  9999  9999  9999  9999  9999  9999  9999  9999  9999  9999  9999  9999  9999  9999  9999  9999  9999  9999  9999  9999  9999  9999  9999  9999  9999  9999  9999  9999  9999  9999  9999  9999  9999
    42    68   124   107    67   114   101    27    75    -1    47   108    30    29    61    68    64   131   126   136   146   165   140   100    80    72   109   162   191   142   135   168    20   108  9999  9999  9999  9999  9999  9999  9999  9999  9999  9999  9999  9999  9999  9999  9999  9999  9999  9999  9999  9999  9999  9999  9999  9999  9999  9999  9999  9999  9999  9999  9999  9999  9999  9999
    83   109   165   148   108   155   142    68    88    41    -1    61    71    70   102   109   105    84    79    96   144   163   175   141   121   113   150   203   232   183   176   121    61   149  9999  9999  9999  9999  9999  9999  9999  9999  9999  9999  9999  9999  9999  9999  9999  9999  9999  9999  9999  9999  9999  9999  9999  9999  9999  9999  9999  9999  9999  9999  9999  9999  9999  9999
   204   230   286   269   216   255   237   162   125   162   123    -1   192   191   223   230   226   144   139   156   184   165   215   249   242   234   251   282   332   297   297   113   182   270  9999  9999  9999  9999  9999  9999  9999  9999  9999  9999  9999  9999  9999  9999  9999  9999  9999  9999  9999  9999  9999  9999  9999  9999  9999  9999  9999  9999  9999  9999  9999  9999  9999  9999
    38    64   120   103    88   135   122    57   105    30    77    87    -1    25    31    38    47   110   105   122   142   161   136    96    76    68   105   158   187   138   131   147    50   104  9999  9999  9999  9999  9999  9999  9999  9999  9999  9999  9999  9999  9999  9999  9999  9999  9999  9999  9999  9999  9999  9999  9999  9999  9999  9999  9999  9999  9999  9999  9999  9999  9999  9999
    13    39    95    78    87   134   121    56   104    29    76   112    25    -1    32    39    35   116   130   107   117   136   111    71    51    43    80   133   162   113   106   172    49    79  9999  9999  9999  9999  9999  9999  9999  9999  9999  9999  9999  9999  9999  9999  9999  9999  9999  9999  9999  9999  9999  9999  9999  9999  9999  9999  9999  9999  9999  9999  9999  9999  9999  9999
    38    48   104    87   119   166   153    88   136    61   108   118    31    32    -1     7    16   123   136   114   124   143   118    78    58    50    87   140   169   120   115   178    81    88  9999  9999  9999  9999  9999  9999  9999  9999  9999  9999  9999  9999  9999  9999  9999  9999  9999  9999  9999  9999  9999  9999  9999  9999  9999  9999  9999  9999  9999  9999  9999  9999  9999  9999
    31    41    97    80   115   162   149    84   132    57   104   114    27    28     7    -1     9   116   132   107   117   136   111    71    51    43    80   133   162   113   108   174    77    81  9999  9999  9999  9999  9999  9999  9999  9999  9999  9999  9999  9999  9999  9999  9999  9999  9999  9999  9999  9999  9999  9999  9999  9999  9999  9999  9999  9999  9999  9999  9999  9999  9999  9999
    22    32    88    71   122   169   156    91   139    64   111   123    36    35    16     9    -1   107   141    98   108   127   102    62    42    34    71   124   153   104    99   166    84    72  9999  9999  9999  9999  9999  9999  9999  9999  9999  9999  9999  9999  9999  9999  9999  9999  9999  9999  9999  9999  9999  9999  9999  9999  9999  9999  9999  9999  9999  9999  9999  9999  9999  9999
   108   134   190   173   133   180   167    93   113    66    85    60    96    95   127   134   130    -1    46    63   116   135   147   166   146   138   175   221   257   208   201   120    86   174  9999  9999  9999  9999  9999  9999  9999  9999  9999  9999  9999  9999  9999  9999  9999  9999  9999  9999  9999  9999  9999  9999  9999  9999  9999  9999  9999  9999  9999  9999  9999  9999  9999  9999
   127   153   209   192   152   199   186   112   132    85   104    79   115   114   146   153   149    19    -1    17    70    89   101   135   148   157   137   175   219   183   220    85   105   193  9999  9999  9999  9999  9999  9999  9999  9999  9999  9999  9999  9999  9999  9999  9999  9999  9999  9999  9999  9999  9999  9999  9999  9999  9999  9999  9999  9999  9999  9999  9999  9999  9999  9999
   153   179   235   218   178   225   212   138   158   111   130   105   141   140   172   179   175    45    57    -1    53    72    84   118   131   183   120   158   202   166   241    68   131   214  9999  9999  9999  9999  9999  9999  9999  9999  9999  9999  9999  9999  9999  9999  9999  9999  9999  9999  9999  9999  9999  9999  9999  9999  9999  9999  9999  9999  9999  9999  9999  9999  9999  9999
   179   165   199   204   243   290   277   203   223   176   195   165   206   192   199   192   183   110   112    82    -1    19    31    65    78   149    67   105   149   113   188    95   196   161  9999  9999  9999  9999  9999  9999  9999  9999  9999  9999  9999  9999  9999  9999  9999  9999  9999  9999  9999  9999  9999  9999  9999  9999  9999  9999  9999  9999  9999  9999  9999  9999  9999  9999
   212   205   239   244   237   284   271   197   217   170   189   146   200   199   231   232   223   104    93    63    40    -1    71   105   118   189   107   117   167   153   228    76   190   201  9999  9999  9999  9999  9999  9999  9999  9999  9999  9999  9999  9999  9999  9999  9999  9999  9999  9999  9999  9999  9999  9999  9999  9999  9999  9999  9999  9999  9999  9999  9999  9999  9999  9999
   148   134   168   173   212   259   246   172   192   145   164   139   175   161   168   161   152    79   125    70    36    55    -1    34    47   118    36    89   118    82   157   131   165   130  9999  9999  9999  9999  9999  9999  9999  9999  9999  9999  9999  9999  9999  9999  9999  9999  9999  9999  9999  9999  9999  9999  9999  9999  9999  9999  9999  9999  9999  9999  9999  9999  9999  9999
   153   146   180   185   178   225   212   138   158   111   130   105   141   140   172   173   164    45    91    36    46    65    77    -1    59   130    48   101   130    94   169   104   131   142  9999  9999  9999  9999  9999  9999  9999  9999  9999  9999  9999  9999  9999  9999  9999  9999  9999  9999  9999  9999  9999  9999  9999  9999  9999  9999  9999  9999  9999  9999  9999  9999  9999  9999
   173   166   200   205   198   245   232   158   178   131   150   125   161   160   192   193   184    65   111    56    66    85    97    20    -1   150    68   121   150   114   189   124   151   162  9999  9999  9999  9999  9999  9999  9999  9999  9999  9999  9999  9999  9999  9999  9999  9999  9999  9999  9999  9999  9999  9999  9999  9999  9999  9999  9999  9999  9999  9999  9999  9999  9999  9999
    30    16    72    55   125   172   156    99   147    72   119   133    68    43    50    43    34    73   119    64    74    93    68    28     8    -1    37    90   119    70    83   132    92    56  9999  9999  9999  9999  9999  9999  9999  9999  9999  9999  9999  9999  9999  9999  9999  9999  9999  9999  9999  9999  9999  9999  9999  9999  9999  9999  9999  9999  9999  9999  9999  9999  9999  9999
   112    98   132   137   185   232   216   181   223   154   195   170   150   125   132   125   116   110   156   101    67    86    31    65    78    82    -1    53    82    46   121   162   174    94  9999  9999  9999  9999  9999  9999  9999  9999  9999  9999  9999  9999  9999  9999  9999  9999  9999  9999  9999  9999  9999  9999  9999  9999  9999  9999  9999  9999  9999  9999  9999  9999  9999  9999
   144   130   164   169   217   256   225   213   261   186   233   234   182   157   164   157   148   174   209   165   131   116    95   129   122   114    93    -1    50    78   147   192   206   126  9999  9999  9999  9999  9999  9999  9999  9999  9999  9999  9999  9999  9999  9999  9999  9999  9999  9999  9999  9999  9999  9999  9999  9999  9999  9999  9999  9999  9999  9999  9999  9999  9999  9999
    94    80   114   119   167   214   198   163   211   136   183   197   132   107   114   107    98   137   183   128   110   129    74    92    72    64    43    57    -1    28   103   196   156    76  9999  9999  9999  9999  9999  9999  9999  9999  9999  9999  9999  9999  9999  9999  9999  9999  9999  9999  9999  9999  9999  9999  9999  9999  9999  9999  9999  9999  9999  9999  9999  9999  9999  9999
    66    52   101    91   154   201   185   135   183   108   155   169   104    79    86    79    70   109   155   100    82   101    46    64    44    36    15    68    97    -1    90   168   128    63  9999  9999  9999  9999  9999  9999  9999  9999  9999  9999  9999  9999  9999  9999  9999  9999  9999  9999  9999  9999  9999  9999  9999  9999  9999  9999  9999  9999  9999  9999  9999  9999  9999  9999
   113   108    70    86    84   131   115   138   186   151   198   225   151   126   142   135   126   165   211   156   138   157   102   120   100    92    71   124    93    56    -1   224   144    32  9999  9999  9999  9999  9999  9999  9999  9999  9999  9999  9999  9999  9999  9999  9999  9999  9999  9999  9999  9999  9999  9999  9999  9999  9999  9999  9999  9999  9999  9999  9999  9999  9999  9999
   146   172   228   211   171   218   205   131   151   104   123    80   134   133   165   172   168    38    27    44    75    76   106   140   153   176   142   180   224   188   239    -1   124   212  9999  9999  9999  9999  9999  9999  9999  9999  9999  9999  9999  9999  9999  9999  9999  9999  9999  9999  9999  9999  9999  9999  9999  9999  9999  9999  9999  9999  9999  9999  9999  9999  9999  9999
   102   128   184   167    61   108    95     7    55    60   107   165    90    89   121   128   124   191   186   196   206   225   200   160   140   132   169   222   251   202   195   228    -1   168  9999  9999  9999  9999  9999  9999  9999  9999  9999  9999  9999  9999  9999  9999  9999  9999  9999  9999  9999  9999  9999  9999  9999  9999  9999  9999  9999  9999  9999  9999  9999  9999  9999  9999
    81    95    38    54    91   138   122   145   193   123   170   206   119    94   119   112   103   184   224   175   165   184   129   139   119   111    98   151   120    83    27   243   143    -1  9999  9999  9999  9999  9999  9999  9999  9999  9999  9999  9999  9999  9999  9999  9999  9999  9999  9999  9999  9999  9999  9999  9999  9999  9999  9999  9999  9999  9999  9999  9999  9999  9999  9999
EOF